 # Version information for this restart file 
 # current date 2020-10-07 08:04:40.237
 # current working dir /fs3/d118/d118/sindtbio/1_SALOME_TUTORIAL/0_tutorial_practice/practical_introduction_to_cp2k/session_3/exercises/4_qmmm_metadynamics
 # Program compiled at                              Thu Jan  5 14:26:40 GMT 2017
 # Program compiled on                                                eslogin001
 # Program compiled for                                                   ARCHER
 # Source code revision number                                         svn:17657
 &GLOBAL
   PRINT_LEVEL  LOW
   PROJECT_NAME METAD
   RUN_TYPE  MD
 &END GLOBAL
 &MOTION
   &MD
     ENSEMBLE  NPT_I
     STEPS  2000
     TIMESTEP     4.9999999999999994E-01
     STEP_START_VAL  2000
     TIME_START_VAL     9.9999999999998226E+02
     ECONS_START_VAL    -1.7017484622299057E+02
     TEMPERATURE     2.9800000000000000E+02
     &BAROSTAT
       PRESSURE     1.0000000000000000E+00
       TIMECON     9.9999999999999986E+01
       &VELOCITY
             2.1141306032671834E-06
       &END VELOCITY
       &MASS
             3.1412938892118984E+08
       &END MASS
       &THERMOSTAT
         TYPE  CSVR
         &CSVR
           TIMECON     9.6755373060191385E-01
           &THERMOSTAT_ENERGY
                 4.0192947750973940E-01
           &END THERMOSTAT_ENERGY
           &RNG_INIT
Wiener process for Thermostat # 1        1 F T F   1.2338863991954963E-03        1549550959.0        2711181512.0        2578641671.0        4207172879.0         549211979.0        3192153701.0             12345.0             12345.0             12345.0             12345.0             12345.0             12345.0             12345.0             12345.0             12345.0             12345.0             12345.0             12345.0
           &END RNG_INIT
         &END CSVR
       &END THERMOSTAT
     &END BAROSTAT
     &THERMOSTAT
       TYPE  CSVR
       REGION  GLOBAL
       &CSVR
         TIMECON     9.9999999999999982E+00
         &THERMOSTAT_ENERGY
              -4.8899986582818098E+00
         &END THERMOSTAT_ENERGY
         &RNG_INIT
Wiener process for Thermostat # 1        1 F T F   5.3828054105905776E-01        3660203202.0        2988885155.0        3791582577.0        4131359466.0        3561744425.0         747301667.0             12345.0             12345.0             12345.0             12345.0             12345.0             12345.0             12345.0             12345.0             12345.0             12345.0             12345.0             12345.0
         &END RNG_INIT
       &END CSVR
     &END THERMOSTAT
     &AVERAGES  T
       &RESTART_AVERAGES
         ITIMES_START  1
         AVECPU     3.9361921239085484E-01
         AVEHUGONIOT     0.0000000000000000E+00
         AVETEMP_BARO     3.0669168571443911E+03
         AVEPOT    -1.7511355502368332E+02
         AVEKIN     9.1166266436625101E+00
         AVETEMP     2.9567088465723077E+02
         AVEKIN_QM     7.2280286117555215E-02
         AVETEMP_QM     6.3400783053041982E+02
         AVEVOL     6.0032839978489233E+05
         AVECELL_A     9.4117564495251557E+01
         AVECELL_B     7.8964075870647036E+01
         AVECELL_C     8.0773711994435445E+01
         AVEALPHA     9.0000000000000256E+01
         AVEBETA     9.0000000000000256E+01
         AVEGAMMA     9.0000000000000256E+01
         AVE_ECONS    -5.9087805415104100E-01
         AVE_PRESS     6.5002848364682420E+00
         AVE_PXX    -1.3410748253921291E+01
       &END RESTART_AVERAGES
     &END AVERAGES
   &END MD
   &FREE_ENERGY
     &METADYN
       USE_PLUMED  T
       PLUMED_INPUT_FILE ./plumed.dat
       MIN_DISP     6.4518151288429023E+00
       OLD_HILL_NUMBER  538976288
       OLD_HILL_STEP  538976288
       STEP_START_VAL  0
       NHILLS_START_VAL  0
       COLVAR_AVG_TEMPERATURE_RESTART     0.0000000000000000E+00
     &END METADYN
   &END FREE_ENERGY
   &PRINT
     &TRAJECTORY  SILENT
       FORMAT  DCD
       &EACH
         MD  4
       &END EACH
     &END TRAJECTORY
     &CELL  SILENT
       &EACH
         MD  100
       &END EACH
     &END CELL
     &RESTART  SILENT
       &EACH
         MD  2500
       &END EACH
     &END RESTART
     &RESTART_HISTORY  SILENT
       &EACH
         MD  5000
       &END EACH
     &END RESTART_HISTORY
   &END PRINT
 &END MOTION
 &FORCE_EVAL
   METHOD  QMMM
   STRESS_TENSOR  ANALYTICAL
   &DFT
     CHARGE  0
     &SCF
       MAX_SCF  30
       EPS_SCF     9.9999999999999995E-07
       SCF_GUESS  ATOMIC
       &OT  T
         MINIMIZER  DIIS
         PRECONDITIONER  FULL_SINGLE_INVERSE
       &END OT
       &OUTER_SCF  T
         EPS_SCF     9.9999999999999995E-07
         MAX_SCF  10
       &END OUTER_SCF
     &END SCF
     &QS
       METHOD  PM3
       &SE
         &COULOMB
           CUTOFF     1.0000000000000002E+01
         &END COULOMB
         &EXCHANGE
           CUTOFF     1.0000000000000002E+01
         &END EXCHANGE
       &END SE
     &END QS
   &END DFT
   &MM
     &FORCEFIELD
       PARMTYPE  AMBER
       PARM_FILE_NAME system.LJ_mod.prmtop
       &SPLINE
         RCUT_NB     1.0000000000000002E+01
         EMAX_SPLINE     1.0000000000000000E+08
       &END SPLINE
     &END FORCEFIELD
     &POISSON
       &EWALD
         EWALD_TYPE  SPME
         ALPHA     4.0000000000000008E-01
         GMAX  80
       &END EWALD
     &END POISSON
   &END MM
   &QMMM
     E_COUPL  COULOMB
     INITIAL_TRANSLATION_VECTOR     4.9367899061729048E+00    3.5574458716632407E+00    4.5125555469282190E+00
     &QM_KIND N
       MM_INDEX  33
     &END QM_KIND
     &QM_KIND O
       MM_INDEX  16 17 35 37
     &END QM_KIND
     &QM_KIND C
       MM_INDEX  27..32 34 36 38
     &END QM_KIND
     &QM_KIND H
       MM_INDEX  19..22
     &END QM_KIND
     &QM_KIND CL
       MM_INDEX  23..26
     &END QM_KIND
     &QM_KIND S
       MM_INDEX  18
     &END QM_KIND
     &CELL
       ABC     4.0000000000000007E+01    4.0000000000000007E+01    4.0000000000000007E+01
       ALPHA_BETA_GAMMA     9.0000000000000000E+01    9.0000000000000000E+01    9.0000000000000000E+01
     &END CELL
     &LINK
       QM_INDEX  38
       MM_INDEX  5
       LINK_TYPE  IMOMM
     &END LINK
   &END QMMM
   &SUBSYS
     &CELL
       A     4.9441641887892636E+01    0.0000000000000000E+00    0.0000000000000000E+00
       B     0.0000000000000000E+00    4.1481242976723053E+01    0.0000000000000000E+00
       C     0.0000000000000000E+00    0.0000000000000000E+00    4.2431877235690159E+01
       MULTIPLE_UNIT_CELL  1 1 1
     &END CELL
     &COORD
C36    2.6046791034958581E+01    1.6126355286207829E+01    1.6380838626345696E+01
C2    2.7307953557002183E+01    1.5472482838644819E+01    1.7038330174391010E+01
O2    2.8379602669163525E+01    1.5873579857704472E+01    1.6671913452978529E+01
O2    2.7167001023417907E+01    1.4863954603920815E+01    1.8128360730974425E+01
C33    2.3661875927173543E+01    1.8985790626378172E+01    1.7927221830928225E+01
C34    2.4632271750489377E+01    1.8379594175205344E+01    1.6741760674141080E+01
C31    2.5727352959798637E+01    1.7313285135205941E+01    1.7287678565153378E+01
HC2    2.4251565598544154E+01    1.8964876263373814E+01    1.8848796630843534E+01
HC2    2.3510882916979831E+01    2.0015367043716882E+01    1.7621405468424033E+01
HC1    2.4947737417123356E+01    1.9149214665125015E+01    1.6113664209789221E+01
HC1    2.4060558376304400E+01    1.7915078848896552E+01    1.5923700384034614E+01
HC3    2.5269670518581247E+01    1.6955653198010946E+01    1.8204272987138978E+01
HC3    2.6653978176877981E+01    1.7793850145931760E+01    1.7566708626984248E+01
HC4    2.5322817535489964E+01    1.5367958394510204E+01    1.6456269866679943E+01
HC4    2.6164108326213547E+01    1.6518528967207136E+01    1.5385964066767757E+01
O1    1.6858651483695024E+01    2.1665829474781702E+01    1.9025848971313760E+01
O1    1.6338124072826460E+01    2.1154910400357807E+01    2.1388593305107467E+01
S6    1.7345224532745643E+01    2.1061906427419139E+01    2.0328526321090806E+01
HC5    1.9808120220334256E+01    2.1707393231070281E+01    1.8668550425400120E+01
HC5    1.8343865218344469E+01    1.9751090783588278E+01    1.8111720835432848E+01
H1    2.2433252029309358E+01    1.7305970361850992E+01    1.8559182907430682E+01
H1    2.1919674368771684E+01    1.8245178891363430E+01    1.6878300228069175E+01
CL2    1.8379707878296806E+01    1.7798312195771622E+01    2.2389595878302565E+01
CL2    2.0184585350418651E+01    2.0417571562061397E+01    2.3121699771930832E+01
CL1    2.0161310710085797E+01    2.2705117069380400E+01    2.1339999055299195E+01
CL1    1.6898783913915235E+01    1.8045446953844007E+01    1.9659167309208740E+01
C2    1.8681968643378081E+01    1.9149680846736754E+01    2.1315864258489910E+01
C2    1.9416785229536291E+01    2.0140743634201311E+01    2.1797602976320412E+01
C35    1.9403052216373752E+01    2.1324214259190764E+01    2.0743820850252870E+01
C32    1.9894701101581340E+01    2.0804964274270059E+01    1.9371562741045402E+01
C32    1.9021683141067037E+01    1.9614258158423933E+01    1.9010104722829876E+01
C35    1.7972403397232142E+01    1.9325770892569793E+01    2.0075858141838278E+01
N    2.1294460319673952E+01    1.8871829519844873E+01    1.8888935293300818E+01
C1    1.9963620859255201E+01    1.8443549831588221E+01    1.8722829925585469E+01
O3    1.9748019229881184E+01    1.7294882930619607E+01    1.8392617644111148E+01
C1    2.1289140864282626E+01    2.0267278318613588E+01    1.9202918226081149E+01
O3    2.2368282021494135E+01    2.0805522157814615E+01    1.9451238211594763E+01
C37    2.2233073246798781E+01    1.8264487961068728E+01    1.8000856256088532E+01
NA+    1.0165496410062429E+01    1.7883525570534719E+01    2.1709342472464922E+01
OW    4.3459520087019577E+01    2.8843859511468619E+01    4.1046476506493491E+01
HW    4.2786840169086211E+01    2.8994598624682592E+01    4.0361734084041160E+01
HW    4.3036702040527054E+01    2.9266465274784082E+01    4.1815367838567795E+01
OW    3.7363306916892903E+01    3.6079192925729004E+01    3.3490732603125316E+01
HW    3.7239626485789756E+01    3.7010233911503740E+01    3.3813200731808820E+01
HW    3.6470777465360072E+01    3.5899417309658730E+01    3.3153684062533095E+01
OW    3.1648110031528791E+01    3.1491016704725009E+01   -3.0066723655709410E-01
HW    3.1112342740980495E+01    3.1856884051153163E+01   -1.0077217350025982E+00
HW    3.2536150184547935E+01    3.1439077278483001E+01   -6.8033157667574218E-01
OW    4.2075220518324109E+01    3.4165278067325701E+01    4.1464117133482112E+01
HW    4.2515646579962841E+01    3.3405389138118146E+01    4.1017577441293497E+01
HW    4.1914152878772470E+01    3.4745455722339535E+01    4.0696016070570487E+01
OW    3.3610444512449639E+01    3.6496152963118654E+01    3.5917997538684851E+01
HW    3.3196951125234833E+01    3.5640898991527436E+01    3.5612948770070453E+01
HW    3.2816852705450216E+01    3.6824511104111536E+01    3.6427049777475951E+01
OW    3.5111165553052047E+01    3.2942846347210150E+01    3.7784403519831571E+01
HW    3.4920530230246619E+01    3.3489665878501022E+01    3.8582076385505836E+01
HW    3.5122076839047701E+01    3.3669906709002277E+01    3.7112338487741674E+01
OW    3.7284187171170601E+01    2.9429401351644369E+01    3.5796263849653890E+01
HW    3.6866869770777065E+01    2.8978197689447267E+01    3.6594005967513176E+01
HW    3.8104288461549388E+01    2.9733624780893624E+01    3.6297373630122422E+01
OW    4.1247333864121572E+01    3.2974242784279994E+01    3.0515868415243443E+01
HW    4.1256907254315756E+01    3.3233056361615070E+01    3.1439437036223293E+01
HW    4.0960394630645979E+01    3.2047380744642012E+01    3.0562420102450300E+01
OW    3.8384000181926581E+01    3.0615097556998978E+00    3.3992197306753013E+01
HW    3.9047333630683760E+01    2.5987221542517660E+00    3.3495093363594982E+01
HW    3.8699489921476840E+01    3.9859861568521229E+00    3.3974876970214083E+01
OW    3.4841287538232066E+01    3.9150633273359261E+01    3.6384740311412564E+01
HW    3.4228531530025599E+01    3.8393838268781884E+01    3.6426775245975563E+01
HW    3.5273104472431413E+01    3.9007025246673997E+01    3.5533848163455787E+01
OW    3.3970526747471666E+01    2.8440091466799263E+01    3.8263709741044977E+01
HW    3.3798598277267423E+01    2.7733575547074111E+01    3.7565839666701407E+01
HW    3.4724573640623085E+01    2.7948509326190425E+01    3.8700400517513621E+01
OW    3.3865724573368453E+01    2.8353711690692602E+01    3.4543974850676271E+01
HW    3.4035979048248606E+01    2.7694337454896793E+01    3.5237145648003704E+01
HW    3.4079690921502149E+01    2.7874771088207556E+01    3.3732997959452675E+01
OW    3.3123624054705907E+01    3.3693603383245943E+01    3.5239825987415060E+01
HW    3.3177950268997122E+01    3.3734280337299296E+01    3.4259943385139280E+01
HW    3.3370680972863646E+01    3.2738525084823614E+01    3.5351954521937273E+01
OW    3.9806322718613536E+01    3.2415652362593214E+01    3.5430661631812150E+01
HW    3.9428772255619144E+01    3.3051807629285015E+01    3.6051609523994081E+01
HW    3.9775372410710496E+01    3.2926758104825296E+01    3.4591074135615770E+01
OW    3.9984161765953118E+01    3.2419397545666797E+01    3.8565135474373477E+01
HW    4.0061113181591779E+01    3.1524830190218349E+01    3.8133349426363850E+01
HW    3.9356024056762607E+01    3.2822006130989912E+01    3.7911325751455607E+01
OW    2.8719027618080776E+01    2.8291494103041739E+01    3.8253144274594845E+01
HW    2.9328699276342579E+01    2.8934270278146130E+01    3.8695343371085066E+01
HW    2.8715585959306932E+01    2.8696334541117039E+01    3.7353734929123974E+01
OW    3.1335777026072037E+01    3.5611440719095334E+01    3.0724775303809285E+01
HW    3.1066021909740915E+01    3.5488575973507281E+01    2.9796089019688818E+01
HW    3.2305631043483402E+01    3.5520878701943573E+01    3.0638977157866851E+01
OW    3.6399215069594717E+01    3.4568839275176799E+01   -2.0667326068931096E+00
HW    3.6979680358464407E+01    3.3804903279501268E+01   -2.1442780955099958E+00
HW    3.6578019554456475E+01    3.4897987971940857E+01   -1.1770516919184559E+00
OW    2.9830215447125106E+01    3.0407793891984387E+01    3.9269907400373157E+01
HW    2.9586135006399960E+01    3.0425357455812481E+01    4.0213487459252697E+01
HW    2.9981130746186345E+01    3.1370989713901569E+01    3.9112603565988422E+01
OW    3.9219209760906828E+01    3.3862725789522116E+01    3.3170357304757424E+01
HW    3.8749099009310648E+01    3.4709636787099065E+01    3.3357269150439436E+01
HW    3.8461795572201432E+01    3.3376109284622288E+01    3.2754735647651046E+01
OW    3.7040848522743076E+01    3.3643602939006946E+01    3.1572240309673134E+01
HW    3.7103742826479923E+01    3.3729660894770504E+01    3.0630108803928213E+01
HW    3.6331711724739108E+01    3.4194988430870005E+01    3.1862589341051983E+01
OW    3.1922449001666259E+01    2.9117013405061094E+01    3.2563933531885198E+01
HW    3.2678981799771066E+01    2.9703029696322936E+01    3.2426022114057318E+01
HW    3.2099426921575855E+01    2.8704351419064224E+01    3.3407511282950288E+01
OW    3.6027273163943882E+01    3.0372479487832294E+01    3.8158516269898051E+01
HW    3.5705642721330378E+01    3.1215943181549157E+01    3.7741753291251932E+01
HW    3.5201401946954263E+01    2.9838442696541776E+01    3.8030726963304559E+01
OW    3.3940847493433687E+01    3.8845637658794182E+01    3.0673555775369234E+01
HW    3.3165505460491318E+01    3.9406199043233826E+01    3.0818017440108072E+01
HW    3.4063544271230697E+01    3.8905047529061157E+01    2.9715499845475396E+01
OW    3.1240459506532229E+01    2.8834571326353348E+01    3.6172802851238593E+01
HW    3.1226600596984500E+01    2.8085714153030381E+01    3.5523268324649187E+01
HW    3.1289235413885066E+01    2.8299473059090158E+01    3.6998435648271943E+01
OW    3.7955976237444098E+01    3.3728058786200762E+01    3.7191612320654528E+01
HW    3.7193882887161124E+01    3.3414687980421327E+01    3.7724884851003196E+01
HW    3.7485748997979201E+01    3.4250576813423073E+01    3.6514259814484134E+01
OW    4.2792467238975377E+01    3.2331654348225342E+01    3.9308539782602928E+01
HW    4.1957342208904095E+01    3.2687550439926596E+01    3.8925151314580752E+01
HW    4.3175252594024109E+01    3.1933891381409854E+01    3.8493976171766469E+01
OW    3.3424507565901649E+01    3.0911498063173237E+01    3.5653481437619895E+01
HW    3.3616178048270811E+01    2.9989685201966925E+01    3.5407553652500731E+01
HW    3.2793090955580787E+01    3.0795403230006588E+01    3.6379253584911929E+01
OW    3.4771600859500268E+01    3.5957089552993615E+01    3.2364447856267304E+01
HW    3.4568806163963671E+01    3.6898332270158505E+01    3.2251206180487472E+01
HW    3.4497098938617221E+01    3.5612675573679851E+01    3.1477519229539965E+01
OW    3.5214891741715888E+01    3.2549377764916024E+01    2.9327364744966996E+01
HW    3.5629087763036672E+01    3.2020490933903027E+01    3.0060597858714605E+01
HW    3.5635170343970159E+01    3.2063849843172896E+01    2.8570503797637318E+01
OW    4.2709628500026106E+01    2.7307860888626806E+01    3.3155593370471330E+01
HW    4.2511671626693996E+01    2.6939820777490180E+01    3.4021567013431557E+01
HW    4.2797248924099470E+01    2.8254266559398886E+01    3.3331587371414344E+01
OW    3.4216938877437073E+01    2.8911807952021590E+01    3.0128983603760965E+01
HW    3.4984658173182169E+01    2.9467402029885125E+01    3.0315015075381975E+01
HW    3.4010038482304566E+01    2.9077386486675710E+01    2.9212066266013977E+01
OW    3.5950942750867291E+01    3.5119861929802404E+01    3.6132129865241602E+01
HW    3.5131972473029073E+01    3.5711774332995418E+01    3.6159037360314649E+01
HW    3.6334254614091030E+01    3.5536805281939962E+01    3.5310955897424122E+01
OW    2.7097117517195194E+01    3.7120229037244357E+01    3.4106034576895908E+01
HW    2.7302449571640338E+01    3.8051823236639002E+01    3.4357848639594053E+01
HW    2.8016890461107050E+01    3.6799195935717947E+01    3.3961820701926882E+01
OW    2.9644802125110193E+01    3.9249806454768681E+01    3.4313792630965565E+01
HW    2.9938927992304393E+01    3.8493189952083696E+01    3.3752192249437535E+01
HW    3.0160575769349826E+01    3.9967728617443157E+01    3.3891736833307384E+01
OW    3.1910993450298292E+01    3.2128512488475771E+01    2.9707548932737570E+01
HW    3.2467959357315621E+01    3.1873045094643963E+01    3.0449035567682031E+01
HW    3.1049611381812834E+01    3.2285151038670151E+01    3.0110515900664833E+01
OW    3.2218138531459921E+01    2.9713498361168664E+01    2.8326981837423993E+01
HW    3.2220821216652588E+01    2.9243613556077403E+01    2.9149918633957309E+01
HW    3.2004223899590130E+01    3.0614500394210992E+01    2.8522480920531997E+01
OW    2.7466650175649971E+01    2.7839105796708434E+01    3.0510454197669979E+01
HW    2.6979287359272991E+01    2.7251182602964288E+01    2.9893949007752109E+01
HW    2.6903728345514239E+01    2.8639878226426205E+01    3.0458154942270301E+01
OW    3.6639964179988503E+01    3.1604653537543545E+01    4.0593056387088922E+01
HW    3.6282522806512297E+01    3.1064942006110503E+01    3.9859864180050785E+01
HW    3.7404839732636361E+01    3.1055850971728468E+01    4.0860402213921716E+01
OW    3.9789739835084468E+01    2.9806653030950443E+01    3.7460160191326068E+01
HW    4.0312309705117073E+01    2.9080605196359894E+01    3.7045718769088666E+01
HW    3.9635699683180270E+01    2.9386289803430735E+01    3.8344944120742085E+01
OW    3.4220983546380552E+01    2.6964830278353112E+01    3.2089844436627857E+01
HW    3.3307070077049026E+01    2.6514120627928978E+01    3.2098873769849149E+01
HW    3.3967268099407150E+01    2.7554560235429907E+01    3.1301407829580231E+01
OW    3.2916045651604257E+01    2.8324244316124890E+01    4.0785477944330026E+01
HW    3.2103513190967035E+01    2.7935399695411181E+01    4.0404881043624158E+01
HW    3.3439395348231422E+01    2.8433973730098060E+01    3.9957344024341104E+01
OW    3.8667264515401499E+01    3.5465886856770815E+01    1.6074830243221133E+01
HW    3.7790530917880069E+01    3.5023304258845748E+01    1.6179645967725421E+01
HW    3.8371430122396333E+01    3.6387481156969230E+01    1.5947179279112556E+01
OW    2.9760299161041132E+01    3.0094661213627479E+01    1.6859718233542569E+01
HW    3.0127390314190976E+01    3.0502286810057250E+01    1.7681842207422712E+01
HW    2.9368239431260481E+01    3.0891072098797569E+01    1.6455071175477311E+01
OW    3.3005827338070084E+01    3.2501416149484541E+01    2.1712077172016151E+01
HW    3.3061807232197964E+01    3.1516641765394262E+01    2.1632336095494541E+01
HW    3.3167553750761037E+01    3.2569772767591566E+01    2.2683741925606533E+01
OW    3.6598125691503284E+01    3.2381107367133197E+01    2.4273719729311701E+01
HW    3.6117192308162693E+01    3.2638385171413269E+01    2.3470233053694468E+01
HW    3.6167288968447821E+01    3.2964550740121588E+01    2.4928327735731582E+01
OW    4.0876839235910751E+01    3.2657735358617572E+01    1.9204898378093041E+01
HW    4.0426859217677212E+01    3.3504595061817291E+01    1.9010546715097330E+01
HW    4.1555980902524134E+01    3.2612142561099809E+01    1.8523562007511938E+01
OW    3.2589862865978446E+01    2.9686559909604817E+01    1.6414723775777333E+01
HW    3.2286961946786555E+01    2.9124561954089021E+01    1.5663802380462908E+01
HW    3.1710418896352429E+01    2.9967591229589846E+01    1.6762415496448899E+01
OW    3.2152575474345667E+01    3.9403534171032703E+01    1.7356263308537887E+01
HW    3.2368769486559721E+01    3.9474887138285531E+01    1.8298546320262069E+01
HW    3.1987754991304218E+01    3.8454441590511870E+01    1.7238939501812968E+01
OW    3.1980865319019610E+01    3.5256528719133968E+01    2.0710307424933887E+01
HW    3.2499181681774445E+01    3.4469366717161542E+01    2.0955241315307330E+01
HW    3.1272213107739017E+01    3.4872766021658336E+01    2.0177776204926172E+01
OW    3.7732838344748245E+01    2.7438573599765192E+01    2.3126403026192857E+01
HW    3.8638302696274131E+01    2.7562608256941211E+01    2.2763554326973019E+01
HW    3.7587158600092806E+01    2.6500351099418083E+01    2.2871850972602438E+01
OW    4.0812462848163186E+01    3.3402593166540186E+01    2.1836615560707752E+01
HW    4.0706484558456474E+01    3.3149104996978437E+01    2.0868945405541428E+01
HW    4.1417316762373424E+01    3.4181443468265869E+01    2.1678172304953666E+01
OW    4.1003720930620048E+01    3.0088176087438711E+01    1.7248449157476884E+01
HW    4.0851825140173169E+01    2.9932045560382864E+01    1.8209567851227671E+01
HW    4.0450756713579516E+01    3.0872705901733994E+01    1.7108597863732463E+01
OW    4.8135276905638406E+01    3.2000246459648302E+01    8.1037306105725886E+00
HW    4.8343783416977942E+01    3.1817210934582459E+01    9.0534153838770877E+00
HW    4.7190406838660955E+01    3.2215389229630432E+01    8.1952716806891956E+00
OW    3.7865431446823223E+01   -2.1457545914332283E+00    2.5304908450519761E+01
HW    3.8258800499754599E+01   -2.5946216636859107E+00    2.4521842749551428E+01
HW    3.8597604376011404E+01   -2.3417790796695948E+00    2.5959217639572412E+01
OW    3.4851379346331214E+01   -1.9303589960841067E-01    2.6713921457932504E+01
HW    3.5298298091574843E+01   -1.0546578582870569E+00    2.6812726048203221E+01
HW    3.5621134890125823E+01    3.8077156200719481E-01    2.6509400516565407E+01
OW    3.6528144284386833E+01    3.5891675245929605E+01    1.9972216246513153E+01
HW    3.5815128775921309E+01    3.5240450284532301E+01    1.9984389884112485E+01
HW    3.6349353138828882E+01    3.6409982998211454E+01    1.9173372073219870E+01
OW    3.4905500129104851E+01    3.3646594600650502E+01    2.0154940425703515E+01
HW    3.5632299531309933E+01    3.3015715646818769E+01    2.0352813418643649E+01
HW    3.4153741319542156E+01    3.3175409137468186E+01    2.0579935452945417E+01
OW    3.8562353889122100E+01    3.3442123259726166E+01    2.8973752744678716E+01
HW    3.8042285003102073E+01    3.2763761048627281E+01    2.9456774446737583E+01
HW    3.9290673181748296E+01    3.2860690741211087E+01    2.8648428207424910E+01
OW    4.2939492406984378E+01    3.4107502891214132E+01    2.8434511647527128E+01
HW    4.3765649227226440E+01    3.3579403050997151E+01    2.8471907206385580E+01
HW    4.2489792285267157E+01    3.3691222167943636E+01    2.9227678552919517E+01
OW    3.6472988305111919E+01    2.9660701912120235E+01    1.7147501241923642E+01
HW    3.6635211151975547E+01    2.8951165162069859E+01    1.6473863490466503E+01
HW    3.7248073923253898E+01    3.0220154030317591E+01    1.6977428356479646E+01
OW    3.9023593746823344E+01    3.4451798334112063E+01    2.3920061546749121E+01
HW    3.9303057380614810E+01    3.3886665289717591E+01    2.4659331117187357E+01
HW    3.9744843550486848E+01    3.4315565993990610E+01    2.3282937076105569E+01
OW    3.3397330133152607E+01    3.0349745315171688E+01    1.9640889296561792E+01
HW    3.3966239424751265E+01    3.0516102542475014E+01    2.0409883635861426E+01
HW    3.3978008169313831E+01    3.0571902960085669E+01    1.8897501038101257E+01
OW    4.5772808706944950E+01    3.0763718987361525E+01    1.1233723608100743E+01
HW    4.5224451471245750E+01    3.0822570247102671E+01    1.2029454390936642E+01
HW    4.5459218444993645E+01    3.1562454287948718E+01    1.0745361073483163E+01
OW    3.8938652973287581E+01    3.0157776080864018E+01    2.9843403504254795E+01
HW    3.8332705910501382E+01    2.9799940258646906E+01    2.9154183482068756E+01
HW    3.9794970358982432E+01    3.0042642142687786E+01    2.9371059676847079E+01
OW    3.9494570496334163E+01    3.4959365124021176E+01    1.8585119107225346E+01
HW    3.9054376244263572E+01    3.5525724258157965E+01    1.9227522827580696E+01
HW    3.9165480328698884E+01    3.5314820346028554E+01    1.7737793226052705E+01
OW    3.4908802456231818E+01    3.4234658423484944E+01    2.4904485226044088E+01
HW    3.5259353983604704E+01    3.5152972309577876E+01    2.5087456155089100E+01
HW    3.3993061044958296E+01    3.4531270731692082E+01    2.4637777847373702E+01
OW    4.2166690065307208E+01    2.8092647457237224E+01    2.8351751898237470E+01
HW    4.2561228432969905E+01    2.7497633872345901E+01    2.9007844417488176E+01
HW    4.2329392525993569E+01    2.7611637196549058E+01    2.7522600536092057E+01
OW    3.1111354588083781E+01    2.8098008821931579E+01    2.0840413981783385E+01
HW    3.1123666118945437E+01    2.7882006933549413E+01    1.9885214422223410E+01
HW    3.1972744262713487E+01    2.7672035042614869E+01    2.1096915812920361E+01
OW    3.3979320925149395E+01    3.6822460745252322E+01    1.3715252462649937E+01
HW    3.3030240901815148E+01    3.6643615351139161E+01    1.3828862248774637E+01
HW    3.3974691685551953E+01    3.7377207161316186E+01    1.2917488583639795E+01
OW    4.2179515742124835E+01    3.5829725604146518E+01    2.1170071119918106E+01
HW    4.1413686174131094E+01    3.6423491378347883E+01    2.1089409918220397E+01
HW    4.2333587901640989E+01    3.5590522227348977E+01    2.0235223418149182E+01
OW    3.4650457362243614E+01    3.7100378294418242E+01    2.2219044617768024E+01
HW    3.5575259782238525E+01    3.6812931689168437E+01    2.1985415452021360E+01
HW    3.4745376166892918E+01    3.7046886535784672E+01    2.3195360134401618E+01
OW    3.0635510153110840E+01    3.3326373697015811E+01    1.6350754094300047E+01
HW    3.0666744885833790E+01    3.3785110353459132E+01    1.5484261836226146E+01
HW    3.1392801474547085E+01    3.3746813291484919E+01    1.6801275451174764E+01
OW    3.0050561374571640E+01    3.3864940657261890E+01    1.3604222369877863E+01
HW    2.9108232904218731E+01    3.3799595495596748E+01    1.3294800162629572E+01
HW    3.0315061018773541E+01    3.4658280047482016E+01    1.3069373574220613E+01
OW    4.3752073058892165E+01    3.4880459764384312E+01    1.8704186034532789E+01
HW    4.4443219382750470E+01    3.4294718493876474E+01    1.9001930921717008E+01
HW    4.3496166518494711E+01    3.4509256087028106E+01    1.7841741055016129E+01
OW    3.3577881673271818E+01    3.6138753772888073E+01    1.8462033054326220E+01
HW    3.3404402641304443E+01    3.5912420477001518E+01    1.9390752716833212E+01
HW    3.2668119078303484E+01    3.6196213094398153E+01    1.8104849703160731E+01
OW    3.9272828064387568E+01    3.8449262450070798E+01    2.3131808543041515E+01
HW    4.0081698306654879E+01    3.8266652188713614E+01    2.3592571764943784E+01
HW    3.9335542800331346E+01    3.7988307210087022E+01    2.2299928363626695E+01
OW    3.1093296397011503E+01    3.1316040422468181E+01    1.8831556340437331E+01
HW    3.1485500640367942E+01    3.2236171339059915E+01    1.8693366406122664E+01
HW    3.1915369247733036E+01    3.0955034177518716E+01    1.9294180919520429E+01
OW    3.7162813138947968E+01    3.6040871227339146E+01    2.2952860283506329E+01
HW    3.7268304832408006E+01    3.5695105804018532E+01    2.2031478786504742E+01
HW    3.7932683822008890E+01    3.5554508206862330E+01    2.3356956580586434E+01
OW    3.8711770414964988E+01    2.6068787834051257E+01    1.0003193701684458E+01
HW    3.9516194659765524E+01    2.5669405179027255E+01    9.6380329445082999E+00
HW    3.8164638501464452E+01    2.6130355578114990E+01    9.1851171859709826E+00
OW    3.6096114685671502E+01    3.5467789202147053E+01    2.8352606936338283E+01
HW    3.6495044028117789E+01    3.5547157717723117E+01    2.7461649717413394E+01
HW    3.6852964659388199E+01    3.5798703702741392E+01    2.8892035820937203E+01
OW    3.8234060139949300E+01    3.6519339276794497E+01    2.9925744442678134E+01
HW    3.8070511701813537E+01    3.6493143312065804E+01    3.0854114824949800E+01
HW    3.8707584120056701E+01    3.5748845186013305E+01    2.9673115456366066E+01
OW    3.4229921496465437E+01    3.8933454778973292E+01    1.1598268172974574E+01
HW    3.4988673630755130E+01    3.8714433719645520E+01    1.0979600191940747E+01
HW    3.3560358971390649E+01    3.9085498029257941E+01    1.0875898352316959E+01
OW    3.2084881230792014E+01    2.7063602974762556E+01    1.8207547769143090E+01